.Version 9.11.6 of ABINIT

 ABINIT is a project of the Universite Catholique de Louvain,
 Corning Inc. and other collaborators, see ~abinit/doc/developers/contributors.txt .
 acknowledgments of the ABINIT effort.

.Starting date : Wed 29 Nov 2023.
- ( at 15h29 )

- input  file    -> tlruj_2.abi
- output file    -> tlruj_2.abo
- root for input  files -> tlruj_2i
- root for output files -> tlruj_2.o

- inpspheads : Reading pseudopotential header in XML form from
-   /home/users/lmacenul/abinit/tests/Psps_for_tests/Pseudodojo_paw_pbe_standard/Ni.xml
- inpspheads : Reading pseudopotential header in XML form from
-   /home/users/lmacenul/abinit/tests/Psps_for_tests/Pseudodojo_paw_pbe_standard/Ni.xml
- inpspheads : Reading pseudopotential header in XML form from
-   /home/users/lmacenul/abinit/tests/Psps_for_tests/Pseudodojo_paw_pbe_standard/O.xml
 DATASET    1 : space group R-3 m (#166); Bravais hR (rhombohedral)
     intxc =       0    ionmov =       0      iscf =      17    lmnmax =      18
     lnmax =       6     mgfft =      40  mpssoang =       3    mqgrid =    3001
     natom =       4  nloc_mem =       2    nspden =       2   nspinor =       1
    nsppol =       2      nsym =      12    n1xccc =       1    ntypat =       3
    occopt =       0   xclevel =       2
-    mband =          26        mffmem =           1         mkmem =           4
       mpw =        1057          nfft =       64000          nkpt =          28
 PAW method is used; the additional fine FFT grid is defined by:
   mgfftf=        60    nfftf =    216000
  Rough estimation (10% accuracy) of disk space for files :

 DATASET    2 : space group R-3 m (#166); Bravais hR (rhombohedral)
     intxc =       0    ionmov =       0      iscf =      17    lmnmax =      18
     lnmax =       6     mgfft =      40  mpssoang =       3    mqgrid =    3001
     natom =       4  nloc_mem =       2    nspden =       2   nspinor =       1
    nsppol =       2      nsym =      12    n1xccc =       1    ntypat =       3
    occopt =       0   xclevel =       2
-    mband =          26        mffmem =           1         mkmem =           4
       mpw =        1057          nfft =       64000          nkpt =          28
 PAW method is used; the additional fine FFT grid is defined by:
   mgfftf=        60    nfftf =    216000
  Rough estimation (10% accuracy) of disk space for files :

[...]

 DATASET    6 : space group R-3 m (#166); Bravais hR (rhombohedral)
     intxc =       0    ionmov =       0      iscf =      17    lmnmax =      18
     lnmax =       6     mgfft =      40  mpssoang =       3    mqgrid =    3001
     natom =       4  nloc_mem =       2    nspden =       2   nspinor =       1
    nsppol =       2      nsym =      12    n1xccc =       1    ntypat =       3
    occopt =       0   xclevel =       2
-    mband =          26        mffmem =           1         mkmem =           4
       mpw =        1057          nfft =       64000          nkpt =          28
 PAW method is used; the additional fine FFT grid is defined by:
   mgfftf=        60    nfftf =    216000
  Rough estimation (10% accuracy) of disk space for files :

------------- Echo of variables that govern the present computation ------------
-
- outvars: echo of selected default values
-   iomode0 =  0 , fftalg0 =512 , wfoptalg0 = 10
-
- outvars: echo of global parameters not present in the input file
-  max_nthreads =    1
-
 -outvars: echo values of preprocessed input variables --------
            acell      7.8800000000E+00  7.8800000000E+00  7.8800000000E+00 Bohr
              amu      5.86900000E+01  5.86900000E+01  1.59994000E+01
         atvshift1      -0.00551   -0.00551   -0.00551   -0.00551   -0.00551
                         0.00551    0.00551    0.00551    0.00551    0.00551
                         0.00000    0.00000    0.00000    0.00000    0.00000
                         0.00000    0.00000    0.00000    0.00000    0.00000
                         0.00000    0.00000    0.00000    0.00000    0.00000
                         0.00000    0.00000    0.00000    0.00000    0.00000
                         0.00000    0.00000    0.00000    0.00000    0.00000
                         0.00000    0.00000    0.00000    0.00000    0.00000
         atvshift2      -0.00367   -0.00367   -0.00367   -0.00367   -0.00367
                         0.00367    0.00367    0.00367    0.00367    0.00367
                         0.00000    0.00000    0.00000    0.00000    0.00000
                         0.00000    0.00000    0.00000    0.00000    0.00000
                         0.00000    0.00000    0.00000    0.00000    0.00000
                         0.00000    0.00000    0.00000    0.00000    0.00000
                         0.00000    0.00000    0.00000    0.00000    0.00000
                         0.00000    0.00000    0.00000    0.00000    0.00000
         atvshift3      -0.00184   -0.00184   -0.00184   -0.00184   -0.00184
                         0.00184    0.00184    0.00184    0.00184    0.00184
                         0.00000    0.00000    0.00000    0.00000    0.00000
                         0.00000    0.00000    0.00000    0.00000    0.00000
                         0.00000    0.00000    0.00000    0.00000    0.00000
                         0.00000    0.00000    0.00000    0.00000    0.00000
                         0.00000    0.00000    0.00000    0.00000    0.00000
                         0.00000    0.00000    0.00000    0.00000    0.00000
         atvshift4       0.00184    0.00184    0.00184    0.00184    0.00184
                        -0.00184   -0.00184   -0.00184   -0.00184   -0.00184
                         0.00000    0.00000    0.00000    0.00000    0.00000
                         0.00000    0.00000    0.00000    0.00000    0.00000
                         0.00000    0.00000    0.00000    0.00000    0.00000
                         0.00000    0.00000    0.00000    0.00000    0.00000
                         0.00000    0.00000    0.00000    0.00000    0.00000
                         0.00000    0.00000    0.00000    0.00000    0.00000
         atvshift5       0.00367    0.00367    0.00367    0.00367    0.00367
                        -0.00367   -0.00367   -0.00367   -0.00367   -0.00367
                         0.00000    0.00000    0.00000    0.00000    0.00000
                         0.00000    0.00000    0.00000    0.00000    0.00000
                         0.00000    0.00000    0.00000    0.00000    0.00000
                         0.00000    0.00000    0.00000    0.00000    0.00000
                         0.00000    0.00000    0.00000    0.00000    0.00000
                         0.00000    0.00000    0.00000    0.00000    0.00000
         atvshift6       0.00551    0.00551    0.00551    0.00551    0.00551
                        -0.00551   -0.00551   -0.00551   -0.00551   -0.00551
                         0.00000    0.00000    0.00000    0.00000    0.00000
                         0.00000    0.00000    0.00000    0.00000    0.00000
                         0.00000    0.00000    0.00000    0.00000    0.00000
                         0.00000    0.00000    0.00000    0.00000    0.00000
                         0.00000    0.00000    0.00000    0.00000    0.00000
                         0.00000    0.00000    0.00000    0.00000    0.00000
          chkprim           0
      chksymbreak           0
           diemix      4.50000000E-01
        dmatpuopt           3
             ecut      2.00000000E+01 Hartree
-          fftalg         512
              ixc     -101130
           jdtset        1    2    3    4    5    6
              kpt      8.33333333E-02  8.33333333E-02  8.33333333E-02
                       2.50000000E-01  8.33333333E-02  8.33333333E-02
                       4.16666667E-01  8.33333333E-02  8.33333333E-02
                      -4.16666667E-01  8.33333333E-02  8.33333333E-02
                      -2.50000000E-01  8.33333333E-02  8.33333333E-02
                      -8.33333333E-02  8.33333333E-02  8.33333333E-02
                       2.50000000E-01  2.50000000E-01  8.33333333E-02
                       4.16666667E-01  2.50000000E-01  8.33333333E-02
                      -4.16666667E-01  2.50000000E-01  8.33333333E-02
                      -2.50000000E-01  2.50000000E-01  8.33333333E-02
                      -8.33333333E-02  2.50000000E-01  8.33333333E-02
                       4.16666667E-01  4.16666667E-01  8.33333333E-02
                      -4.16666667E-01  4.16666667E-01  8.33333333E-02
                      -2.50000000E-01  4.16666667E-01  8.33333333E-02
                      -8.33333333E-02  4.16666667E-01  8.33333333E-02
                      -4.16666667E-01 -4.16666667E-01  8.33333333E-02
                      -2.50000000E-01 -4.16666667E-01  8.33333333E-02
                      -2.50000000E-01 -2.50000000E-01  8.33333333E-02
                       2.50000000E-01  2.50000000E-01  2.50000000E-01
                       4.16666667E-01  2.50000000E-01  2.50000000E-01
                      -4.16666667E-01  2.50000000E-01  2.50000000E-01
                      -2.50000000E-01  2.50000000E-01  2.50000000E-01
                       4.16666667E-01  4.16666667E-01  2.50000000E-01
                      -4.16666667E-01  4.16666667E-01  2.50000000E-01
                      -2.50000000E-01  4.16666667E-01  2.50000000E-01
                      -4.16666667E-01 -4.16666667E-01  2.50000000E-01
                       4.16666667E-01  4.16666667E-01  4.16666667E-01
                      -4.16666667E-01  4.16666667E-01  4.16666667E-01
         kptrlatt        6    0    0      0    6    0      0    0    6
          kptrlen      3.34320086E+01
            lpawu           2       2       1
         macro_uj        4
P           mkmem           4
            natom           4
            nband          26
        natvshift        5
           ndtset           6
            ngfft          40      40      40
          ngfftdg          60      60      60
             nkpt          28
           nspden           2
           nsppol           2
             nsym          12
           ntypat           3
              occ      1.000000  1.000000  1.000000  1.000000  1.000000  1.000000
                       1.000000  1.000000  1.000000  1.000000  1.000000  1.000000
                       1.000000  1.000000  1.000000  1.000000  1.000000  1.000000
                       1.000000  1.000000  1.000000  1.000000  1.000000  1.000000
                       0.000000  0.000000
                       1.000000  1.000000  1.000000  1.000000  1.000000  1.000000
                       1.000000  1.000000  1.000000  1.000000  1.000000  1.000000
                       1.000000  1.000000  1.000000  1.000000  1.000000  1.000000
                       1.000000  1.000000  1.000000  1.000000  1.000000  1.000000
                       0.000000  0.000000
           occopt           0
-      paral_atom           0
        pawecutdg      4.00000000E+01 Hartree
        pawprtvol          -3
           pawujv1    -5.5123988097E-03 Hartree
           pawujv2    -3.6749325398E-03 Hartree
           pawujv3    -1.8374662699E-03 Hartree
[...]
)     Minimum=    5.7978E-03  at reduced coord.    0.3833    0.3667    0.3667
)Next minimum=    5.7978E-03  at reduced coord.    0.3667    0.3833    0.3667
   Integrated=    2.4000E+01
 Spin down density    [el/Bohr^3]
)     Maximum=    1.8120E+00  at reduced coord.    0.4833    0.4833    0.5500
)Next maximum=    1.8120E+00  at reduced coord.    0.4500    0.5167    0.5167
)     Minimum=    5.7438E-03  at reduced coord.    0.1333    0.1333    0.1167
)Next minimum=    5.7438E-03  at reduced coord.    0.1333    0.1167    0.1333
   Integrated=    2.4000E+01
 Magnetization (spin up - spin down) [el/Bohr^3]
)     Maximum=    2.7400E-01  at reduced coord.    0.0000    0.0000    0.0000
)Next maximum=    2.7105E-01  at reduced coord.    0.0000    0.0167    0.9833
)     Minimum=   -2.7955E-01  at reduced coord.    0.5000    0.5000    0.5000
)Next minimum=   -2.7655E-01  at reduced coord.    0.5167    0.5000    0.4833
   Integrated=    9.3727E-08
 Relative magnetization (=zeta, between -1 and 1)
)     Maximum=    2.5245E-01  at reduced coord.    0.2667    0.9167    0.9167
)Next maximum=    2.5245E-01  at reduced coord.    0.9167    0.2667    0.9167
)     Minimum=   -2.5669E-01  at reduced coord.    0.5833    0.5833    0.2333
)Next minimum=   -2.5669E-01  at reduced coord.    0.7667    0.4167    0.4167

--- !EnergyTerms
iteration_state     : {dtset: 6, }
comment             : Components of total free energy in Hartree
kinetic             :  7.32752782309578E+01
hartree             :  9.49918421689884E+01
xc                  : -1.91851111030570E+01
Ewald energy        : -2.39331554544165E+02
psp_core            :  1.04313020493137E+01
local_psp           : -2.84846887675879E+02
spherical_terms     : -9.25238042821761E+00
total_energy        : -3.73917511302059E+02
total_energy_eV     : -1.01748129320162E+04
...

--- !EnergyTermsDC
iteration_state     : {dtset: 6, }
comment             : '"Double-counting" decomposition of free energy'
band_energy         : -3.26133971416162E+01
Ewald energy        : -2.39331554544165E+02
psp_core            :  1.04313020493137E+01
xc_dc               : -8.92307674922420E+01
spherical_terms     : -2.31662374383772E+01
total_energy_dc     : -3.73910654567087E+02
total_energy_dc_eV  : -1.01746263507689E+04
...

 Cartesian components of stress tensor (hartree/bohr^3)
  sigma(1 1)=  6.71859347E-04  sigma(3 2)=  1.03195840E-05
  sigma(2 2)=  6.71859347E-04  sigma(3 1)=  1.03195840E-05
  sigma(3 3)=  6.71859347E-04  sigma(2 1)=  1.03195840E-05

-Cartesian components of stress tensor (GPa)         [Pressure= -1.9767E+01 GPa]
- sigma(1 1)=  1.97667811E+01  sigma(3 2)=  3.03612594E-01
- sigma(2 2)=  1.97667811E+01  sigma(3 1)=  3.03612594E-01
- sigma(3 3)=  1.97667811E+01  sigma(2 1)=  3.03612594E-01

== END DATASET(S) ==============================================================

 -outvars: echo values of variables after computation  --------
            acell      7.8800000000E+00  7.8800000000E+00  7.8800000000E+00 Bohr
              amu      5.86900000E+01  5.86900000E+01  1.59994000E+01
         atvshift1      -0.00551   -0.00551   -0.00551   -0.00551   -0.00551
                         0.00551    0.00551    0.00551    0.00551    0.00551
                         0.00000    0.00000    0.00000    0.00000    0.00000
                         0.00000    0.00000    0.00000    0.00000    0.00000
                         0.00000    0.00000    0.00000    0.00000    0.00000
                         0.00000    0.00000    0.00000    0.00000    0.00000
                         0.00000    0.00000    0.00000    0.00000    0.00000
                         0.00000    0.00000    0.00000    0.00000    0.00000
         atvshift2      -0.00367   -0.00367   -0.00367   -0.00367   -0.00367
                         0.00367    0.00367    0.00367    0.00367    0.00367
                         0.00000    0.00000    0.00000    0.00000    0.00000
                         0.00000    0.00000    0.00000    0.00000    0.00000
                         0.00000    0.00000    0.00000    0.00000    0.00000
                         0.00000    0.00000    0.00000    0.00000    0.00000
                         0.00000    0.00000    0.00000    0.00000    0.00000
                         0.00000    0.00000    0.00000    0.00000    0.00000
         atvshift3      -0.00184   -0.00184   -0.00184   -0.00184   -0.00184
                         0.00184    0.00184    0.00184    0.00184    0.00184
                         0.00000    0.00000    0.00000    0.00000    0.00000
                         0.00000    0.00000    0.00000    0.00000    0.00000
                         0.00000    0.00000    0.00000    0.00000    0.00000
                         0.00000    0.00000    0.00000    0.00000    0.00000
                         0.00000    0.00000    0.00000    0.00000    0.00000
                         0.00000    0.00000    0.00000    0.00000    0.00000
         atvshift4       0.00184    0.00184    0.00184    0.00184    0.00184
                        -0.00184   -0.00184   -0.00184   -0.00184   -0.00184
                         0.00000    0.00000    0.00000    0.00000    0.00000
                         0.00000    0.00000    0.00000    0.00000    0.00000
                         0.00000    0.00000    0.00000    0.00000    0.00000
                         0.00000    0.00000    0.00000    0.00000    0.00000
                         0.00000    0.00000    0.00000    0.00000    0.00000
                         0.00000    0.00000    0.00000    0.00000    0.00000
         atvshift5       0.00367    0.00367    0.00367    0.00367    0.00367
                        -0.00367   -0.00367   -0.00367   -0.00367   -0.00367
                         0.00000    0.00000    0.00000    0.00000    0.00000
                         0.00000    0.00000    0.00000    0.00000    0.00000
                         0.00000    0.00000    0.00000    0.00000    0.00000
                         0.00000    0.00000    0.00000    0.00000    0.00000
                         0.00000    0.00000    0.00000    0.00000    0.00000
                         0.00000    0.00000    0.00000    0.00000    0.00000
         atvshift6       0.00551    0.00551    0.00551    0.00551    0.00551
                        -0.00551   -0.00551   -0.00551   -0.00551   -0.00551
                         0.00000    0.00000    0.00000    0.00000    0.00000
                         0.00000    0.00000    0.00000    0.00000    0.00000
                         0.00000    0.00000    0.00000    0.00000    0.00000
                         0.00000    0.00000    0.00000    0.00000    0.00000
                         0.00000    0.00000    0.00000    0.00000    0.00000
                         0.00000    0.00000    0.00000    0.00000    0.00000
          chkprim           0
      chksymbreak           0
           diemix      4.50000000E-01
        dmatpuopt           3
             ecut      2.00000000E+01 Hartree
           etotal1    -3.7392507864E+02
           etotal2    -3.7392258444E+02
           etotal3    -3.7392012387E+02
           etotal4    -3.7391531044E+02
           etotal5    -3.7391296161E+02
           etotal6    -3.7391065457E+02
            fcart1     1.0164395367E-20  6.7762635780E-21 -3.3881317890E-21
                       1.0164395367E-20  6.7762635780E-21 -3.3881317890E-21
                      -1.1977142778E-04 -1.1977142778E-04 -1.1977142778E-04
                       1.1977142778E-04  1.1977142778E-04  1.1977142778E-04
            fcart2     0.0000000000E+00  0.0000000000E+00  0.0000000000E+00
                       0.0000000000E+00  0.0000000000E+00  0.0000000000E+00
                      -8.2381310216E-05 -8.2381310216E-05 -8.2381310216E-05
                       8.2381310216E-05  8.2381310216E-05  8.2381310216E-05
            fcart3     0.0000000000E+00  0.0000000000E+00  0.0000000000E+00
                       0.0000000000E+00  0.0000000000E+00  0.0000000000E+00
                      -4.2341234569E-05 -4.2341234569E-05 -4.2341234569E-05
                       4.2341234569E-05  4.2341234569E-05  4.2341234569E-05
            fcart4     0.0000000000E+00  3.3881317890E-21 -6.7762635780E-21
                       0.0000000000E+00  3.3881317890E-21 -6.7762635780E-21
                       4.6112879335E-05  4.6112879335E-05  4.6112879335E-05
                      -4.6112879335E-05 -4.6112879335E-05 -4.6112879335E-05
            fcart5     0.0000000000E+00  6.7762635780E-21 -1.3552527156E-20
                       0.0000000000E+00  6.7762635780E-21 -1.3552527156E-20
                       9.4852673417E-05  9.4852673417E-05  9.4852673417E-05
                      -9.4852673417E-05 -9.4852673417E-05 -9.4852673417E-05
            fcart6     6.7762635780E-21 -1.3552527156E-20  6.7762635780E-21
                       6.7762635780E-21 -1.3552527156E-20  6.7762635780E-21
                       1.4678318907E-04  1.4678318907E-04  1.4678318907E-04
                      -1.4678318907E-04 -1.4678318907E-04 -1.4678318907E-04
-          fftalg         512
              ixc     -101130
           jdtset        1    2    3    4    5    6
              kpt      8.33333333E-02  8.33333333E-02  8.33333333E-02
                       2.50000000E-01  8.33333333E-02  8.33333333E-02
                       4.16666667E-01  8.33333333E-02  8.33333333E-02
                      -4.16666667E-01  8.33333333E-02  8.33333333E-02
                      -2.50000000E-01  8.33333333E-02  8.33333333E-02
                      -8.33333333E-02  8.33333333E-02  8.33333333E-02
                       2.50000000E-01  2.50000000E-01  8.33333333E-02
                       4.16666667E-01  2.50000000E-01  8.33333333E-02
                      -4.16666667E-01  2.50000000E-01  8.33333333E-02
                      -2.50000000E-01  2.50000000E-01  8.33333333E-02
                      -8.33333333E-02  2.50000000E-01  8.33333333E-02
                       4.16666667E-01  4.16666667E-01  8.33333333E-02
                      -4.16666667E-01  4.16666667E-01  8.33333333E-02
                      -2.50000000E-01  4.16666667E-01  8.33333333E-02
                      -8.33333333E-02  4.16666667E-01  8.33333333E-02
                      -4.16666667E-01 -4.16666667E-01  8.33333333E-02
                      -2.50000000E-01 -4.16666667E-01  8.33333333E-02
                      -2.50000000E-01 -2.50000000E-01  8.33333333E-02
                       2.50000000E-01  2.50000000E-01  2.50000000E-01
                       4.16666667E-01  2.50000000E-01  2.50000000E-01
                      -4.16666667E-01  2.50000000E-01  2.50000000E-01
                      -2.50000000E-01  2.50000000E-01  2.50000000E-01
                       4.16666667E-01  4.16666667E-01  2.50000000E-01
                      -4.16666667E-01  4.16666667E-01  2.50000000E-01
                      -2.50000000E-01  4.16666667E-01  2.50000000E-01
                      -4.16666667E-01 -4.16666667E-01  2.50000000E-01
                       4.16666667E-01  4.16666667E-01  4.16666667E-01
                      -4.16666667E-01  4.16666667E-01  4.16666667E-01
         kptrlatt        6    0    0      0    6    0      0    0    6
          kptrlen      3.34320086E+01
            lpawu           2       2       1
         macro_uj        4
P           mkmem           4
            natom           4
            nband          26
        natvshift        5
           ndtset           6
            ngfft          40      40      40
          ngfftdg          60      60      60
             nkpt          28
           nspden           2
           nsppol           2
             nsym          12
           ntypat           3
              occ      1.000000  1.000000  1.000000  1.000000  1.000000  1.000000
                       1.000000  1.000000  1.000000  1.000000  1.000000  1.000000
                       1.000000  1.000000  1.000000  1.000000  1.000000  1.000000
                       1.000000  1.000000  1.000000  1.000000  1.000000  1.000000
                       0.000000  0.000000
                       1.000000  1.000000  1.000000  1.000000  1.000000  1.000000
                       1.000000  1.000000  1.000000  1.000000  1.000000  1.000000
                       1.000000  1.000000  1.000000  1.000000  1.000000  1.000000
                       1.000000  1.000000  1.000000  1.000000  1.000000  1.000000
                       0.000000  0.000000
           occopt           0
-      paral_atom           0
        pawecutdg      4.00000000E+01 Hartree
        pawprtvol          -3
           pawujv1    -5.5123988097E-03 Hartree
           pawujv2    -3.6749325398E-03 Hartree
           pawujv3    -1.8374662699E-03 Hartree
           pawujv4     1.8374662699E-03 Hartree
           pawujv5     3.6749325398E-03 Hartree
           pawujv6     5.5123988097E-03 Hartree
           prtden           0
        prtebands           0
           prteig           0
           prtgsr           0
           prtvol           3
            prtwf           0
            rprim      5.0000000000E-01  5.0000000000E-01  1.0000000000E+00
                       1.0000000000E+00  5.0000000000E-01  5.0000000000E-01
                       5.0000000000E-01  1.0000000000E+00  5.0000000000E-01
           shiftk      5.00000000E-01  5.00000000E-01  5.00000000E-01
          spgroup         166
           spinat      0.0000000000E+00  0.0000000000E+00  3.0000000000E+00
                       0.0000000000E+00  0.0000000000E+00 -3.0000000000E+00
                       0.0000000000E+00  0.0000000000E+00  0.0000000000E+00
                       0.0000000000E+00  0.0000000000E+00  0.0000000000E+00
           strten1     6.4141085930E-04  6.4141085930E-04  6.4141085930E-04
                       1.1899839967E-05  1.1899839967E-05  1.1899839967E-05
           strten2     6.4602146907E-04  6.4602146907E-04  6.4602146907E-04
                       1.1672749284E-05  1.1672749284E-05  1.1672749284E-05
           strten3     6.5078625195E-04  6.5078625195E-04  6.5078625195E-04
                       1.1433170569E-05  1.1433170569E-05  1.1433170569E-05
           strten4     6.6088102977E-04  6.6088102977E-04  6.6088102977E-04
                       1.0911438932E-05  1.0911438932E-05  1.0911438932E-05
           strten5     6.6624116599E-04  6.6624116599E-04  6.6624116599E-04
                       1.0625438301E-05  1.0625438301E-05  1.0625438301E-05
           strten6     6.7185934739E-04  6.7185934739E-04  6.7185934739E-04
                       1.0319584046E-05  1.0319584046E-05  1.0319584046E-05
           symrel      1  0  0   0  1  0   0  0  1      -1  0  0   0 -1  0   0  0 -1
                       0  1  0   1  0  0   0  0  1       0 -1  0  -1  0  0   0  0 -1
                       0  0  1   1  0  0   0  1  0       0  0 -1  -1  0  0   0 -1  0
                       1  0  0   0  0  1   0  1  0      -1  0  0   0  0 -1   0 -1  0
                       0  1  0   0  0  1   1  0  0       0 -1  0   0  0 -1  -1  0  0
                       0  0  1   0  1  0   1  0  0       0  0 -1   0 -1  0  -1  0  0
           tolvrs      1.00000000E-11
            typat      1  2  3  3
          usepawu           1
           useylm           1
              wtk        0.00926    0.02778    0.02778    0.02778    0.02778    0.02778
                         0.02778    0.05556    0.05556    0.05556    0.05556    0.02778
                         0.05556    0.05556    0.05556    0.02778    0.05556    0.02778
                         0.00926    0.02778    0.02778    0.02778    0.02778    0.05556
                         0.05556    0.02778    0.00926    0.02778
           xangst      0.0000000000E+00  0.0000000000E+00  0.0000000000E+00
                       4.1699164037E+00  4.1699164037E+00  4.1699164037E+00
                       2.0849582018E+00  2.0849582018E+00  2.0849582018E+00
                       6.2548746055E+00  6.2548746055E+00  6.2548746055E+00
            xcart      0.0000000000E+00  0.0000000000E+00  0.0000000000E+00
                       7.8800000000E+00  7.8800000000E+00  7.8800000000E+00
                       3.9400000000E+00  3.9400000000E+00  3.9400000000E+00
                       1.1820000000E+01  1.1820000000E+01  1.1820000000E+01
             xred      0.0000000000E+00  0.0000000000E+00  0.0000000000E+00
                       5.0000000000E-01  5.0000000000E-01  5.0000000000E-01
                       2.5000000000E-01  2.5000000000E-01  2.5000000000E-01
                       7.5000000000E-01  7.5000000000E-01  7.5000000000E-01
            znucl       28.00000   28.00000    8.00000

- Timing analysis has been suppressed with timopt=0

 Suggested references for the acknowledgment of ABINIT usage.

 Calculation completed.
.Delivered  18 WARNINGs and   0 COMMENTs to log file.